************************************************************************
file with basedata            : cm124_.bas
initial value random generator: 1974372387
************************************************************************
projects                      :  1
jobs (incl. supersource/sink ):  18
horizon                       :  68
RESOURCES
  - renewable                 :  2   R
  - nonrenewable              :  2   N
  - doubly constrained        :  0   D
************************************************************************
PROJECT INFORMATION:
pronr.  #jobs rel.date duedate tardcost  MPM-Time
    1     16      0       31        9       31
************************************************************************
PRECEDENCE RELATIONS:
jobnr.    #modes  #successors   successors
   1        1          3           2   3   4
   2        1          1           8
   3        1          3           5   8  11
   4        1          3           8  11  12
   5        1          2           6  13
   6        1          3           7   9  15
   7        1          3          12  14  17
   8        1          2          13  15
   9        1          3          10  14  17
  10        1          1          12
  11        1          3          13  15  17
  12        1          1          16
  13        1          1          14
  14        1          1          16
  15        1          1          18
  16        1          1          18
  17        1          1          18
  18        1          0        
************************************************************************
REQUESTS/DURATIONS:
jobnr. mode duration  R 1  R 2  N 1  N 2
------------------------------------------------------------------------
  1      1     0       0    0    0    0
  2      1     5       9    4    7    0
  3      1     1       3    3    0    5
  4      1     4       8    8    8    0
  5      1     4       4    3    2    0
  6      1     2       5    8    0    8
  7      1     3       9    3    0    8
  8      1     1       7   10    6    0
  9      1     5       8    6    0    5
 10      1     1       4    3    1    0
 11      1     4       4    2    0    1
 12      1     5       8    3    3    0
 13      1     7       8    5    0    6
 14      1    10       2    4    0    4
 15      1     3       5    6    7    0
 16      1     6       2    2    0    5
 17      1     7       2    8    5    0
 18      1     0       0    0    0    0
************************************************************************
RESOURCEAVAILABILITIES:
  R 1  R 2  N 1  N 2
   30   20   39   42
************************************************************************
